(set-logic QF_UF)
(declare-fun car () Bool)
(declare-fun circuit () Bool)
(declare-fun clk () Bool)
(declare-fun prt () Bool)
(assert (= prt prt))
(assert (= (not (not prt)) prt))
(assert (not (= (= prt (not (not prt))) (= prt prt))))
(check-sat)
(exit)
